<?xml version = "1.0" standalone="yes"?>
<!-- This file has been generated by DOcplex version 2.23.222  -->
<CPLEXSolution version="1.0">
 <header
   problemName="CVRP"
   objectiveValue="19478.5"
  />
 <variables>
  <variable name="x_0_1" index="0" value="1.00000"/>
  <variable name="x_0_3" index="2" value="1.00000"/>
  <variable name="x_0_5" index="4" value="1.00000"/>
  <variable name="x_0_6" index="5" value="1.00000"/>
  <variable name="x_0_7" index="6" value="1.00000"/>
  <variable name="x_0_9" index="8" value="1.00000"/>
  <variable name="x_0_10" index="9" value="1.00000"/>
  <variable name="x_0_13" index="12" value="1.00000"/>
  <variable name="x_0_19" index="18" value="1.00000"/>
  <variable name="x_0_21" index="20" value="1.00000"/>
  <variable name="x_0_23" index="22" value="1.00000"/>
  <variable name="x_1_18" index="40" value="1.00000"/>
  <variable name="x_2_0" index="46" value="1.00000"/>
  <variable name="x_3_4" index="72" value="1.00000"/>
  <variable name="x_4_0" index="92" value="1.00000"/>
  <variable name="x_5_20" index="134" value="1.00000"/>
  <variable name="x_6_0" index="138" value="1.00000"/>
  <variable name="x_7_12" index="172" value="1.00000"/>
  <variable name="x_8_22" index="205" value="1.00000"/>
  <variable name="x_9_15" index="221" value="1.00000"/>
  <variable name="x_10_8" index="238" value="1.00000"/>
  <variable name="x_11_0" index="253" value="1.00000"/>
  <variable name="x_12_2" index="278" value="1.00000"/>
  <variable name="x_13_0" index="299" value="1.00000"/>
  <variable name="x_14_0" index="322" value="1.00000"/>
  <variable name="x_15_17" index="361" value="1.00000"/>
  <variable name="x_16_14" index="382" value="1.00000"/>
  <variable name="x_17_0" index="391" value="1.00000"/>
  <variable name="x_18_16" index="430" value="1.00000"/>
  <variable name="x_19_11" index="448" value="1.00000"/>
  <variable name="x_20_0" index="460" value="1.00000"/>
  <variable name="x_21_0" index="483" value="1.00000"/>
  <variable name="x_22_0" index="506" value="1.00000"/>
  <variable name="x_23_0" index="529" value="1.00000"/>
  <variable name="u_1" index="552" value="19.00000"/>
  <variable name="u_2" index="553" value="76.00000"/>
  <variable name="u_3" index="554" value="20.00000"/>
  <variable name="u_4" index="555" value="76.00000"/>
  <variable name="u_5" index="556" value="37.00000"/>
  <variable name="u_6" index="557" value="76.00000"/>
  <variable name="u_7" index="558" value="30.00000"/>
  <variable name="u_8" index="559" value="27.00000"/>
  <variable name="u_9" index="560" value="39.00000"/>
  <variable name="u_10" index="561" value="20.00000"/>
  <variable name="u_11" index="562" value="76.00000"/>
  <variable name="u_12" index="563" value="72.00000"/>
  <variable name="u_13" index="564" value="76.00000"/>
  <variable name="u_14" index="565" value="76.00000"/>
  <variable name="u_15" index="566" value="74.00000"/>
  <variable name="u_16" index="567" value="65.00000"/>
  <variable name="u_17" index="568" value="76.00000"/>
  <variable name="u_18" index="569" value="62.00000"/>
  <variable name="u_19" index="570" value="12.00000"/>
  <variable name="u_20" index="571" value="76.00000"/>
  <variable name="u_21" index="572" value="28.00000"/>
  <variable name="u_22" index="573" value="76.00000"/>
  <variable name="u_23" index="574" value="76.00000"/>
 </variables>
</CPLEXSolution>
